NAME          
ROWS
 N  OBJ
 L  c1
 L  c2
 L  c3
COLUMNS
    MARKER    'MARKER'                 'INTORG'
    x[1]      c1        369
    x[1]      c2        698
    x[1]      c3        249
    x[1]      OBJ       -154
    x[2]      c1        714
    x[2]      c2        628
    x[2]      c3        127
    x[2]      OBJ       -777
    x[3]      c1        129
    x[3]      c2        453
    x[3]      c3        347
    x[3]      OBJ       -210
    x[4]      c1        358
    x[4]      c2        308
    x[4]      c3        499
    x[4]      OBJ       -875
    x[5]      c1        48
    x[5]      c2        200
    x[5]      c3        425
    x[5]      OBJ       -248
    x[6]      c1        862
    x[6]      c2        829
    x[6]      c3        922
    x[6]      OBJ       -275
    x[7]      c1        806
    x[7]      c2        734
    x[7]      c3        170
    x[7]      OBJ       -483
    x[8]      c1        352
    x[8]      c2        447
    x[8]      c3        227
    x[8]      OBJ       -82
    x[9]      c1        320
    x[9]      c2        356
    x[9]      c3        483
    x[9]      OBJ       -563
    x[10]     c1        866
    x[10]     c2        90
    x[10]     c3        125
    x[10]     OBJ       -566
    x[11]     c1        281
    x[11]     c2        147
    x[11]     c3        907
    x[11]     OBJ       -161
    x[12]     c1        193
    x[12]     c2        66
    x[12]     c3        350
    x[12]     OBJ       -754
    x[13]     c1        278
    x[13]     c2        25
    x[13]     c3        270
    x[13]     OBJ       -179
    x[14]     c1        196
    x[14]     c2        48
    x[14]     c3        255
    x[14]     OBJ       -362
    x[15]     c1        161
    x[15]     c2        753
    x[15]     c3        518
    x[15]     OBJ       -318
    x[16]     c1        507
    x[16]     c2        955
    x[16]     c3        657
    x[16]     OBJ       -350
    x[17]     c1        214
    x[17]     c2        710
    x[17]     c3        623
    x[17]     OBJ       -550
    x[18]     c1        642
    x[18]     c2        615
    x[18]     c3        918
    x[18]     OBJ       -926
    x[19]     c1        857
    x[19]     c2        529
    x[19]     c3        407
    x[19]     OBJ       -58
    x[20]     c1        281
    x[20]     c2        679
    x[20]     c3        434
    x[20]     OBJ       -276
    x[21]     c1        968
    x[21]     c2        48
    x[21]     c3        357
    x[21]     OBJ       -938
    x[22]     c1        362
    x[22]     c2        454
    x[22]     c3        751
    x[22]     OBJ       -266
    x[23]     c1        336
    x[23]     c2        362
    x[23]     c3        574
    x[23]     OBJ       -629
    x[24]     c1        707
    x[24]     c2        722
    x[24]     c3        162
    x[24]     OBJ       -538
    x[25]     c1        139
    x[25]     c2        758
    x[25]     c3        823
    x[25]     OBJ       -766
    x[26]     c1        820
    x[26]     c2        499
    x[26]     c3        825
    x[26]     OBJ       -471
    x[27]     c1        657
    x[27]     c2        410
    x[27]     c3        949
    x[27]     OBJ       -31
    x[28]     c1        84
    x[28]     c2        968
    x[28]     c3        643
    x[28]     OBJ       -152
    x[29]     c1        720
    x[29]     c2        382
    x[29]     c3        118
    x[29]     OBJ       -580
    x[30]     c1        530
    x[30]     c2        927
    x[30]     c3        173
    x[30]     OBJ       -32
    x[31]     c1        619
    x[31]     c2        327
    x[31]     c3        795
    x[31]     OBJ       -739
    x[32]     c1        254
    x[32]     c2        770
    x[32]     c3        434
    x[32]     OBJ       -251
    x[33]     c1        655
    x[33]     c2        952
    x[33]     c3        618
    x[33]     OBJ       -659
    x[34]     c1        36
    x[34]     c2        421
    x[34]     c3        215
    x[34]     OBJ       -182
    x[35]     c1        647
    x[35]     c2        816
    x[35]     c3        565
    x[35]     OBJ       -867
    x[36]     c1        384
    x[36]     c2        800
    x[36]     c3        559
    x[36]     OBJ       -868
    x[37]     c1        650
    x[37]     c2        610
    x[37]     c3        594
    x[37]     OBJ       -921
    x[38]     c1        993
    x[38]     c2        757
    x[38]     c3        43
    x[38]     OBJ       -816
    x[39]     c1        991
    x[39]     c2        809
    x[39]     c3        750
    x[39]     OBJ       -122
    x[40]     c1        782
    x[40]     c2        257
    x[40]     c3        766
    x[40]     OBJ       -676
    x[41]     c1        613
    x[41]     c2        187
    x[41]     c3        131
    x[41]     OBJ       -779
    x[42]     c1        231
    x[42]     c2        238
    x[42]     c3        759
    x[42]     OBJ       -227
    x[43]     c1        139
    x[43]     c2        741
    x[43]     c3        2
    x[43]     OBJ       -279
    x[44]     c1        53
    x[44]     c2        826
    x[44]     c3        95
    x[44]     OBJ       -820
    x[45]     c1        591
    x[45]     c2        845
    x[45]     c3        927
    x[45]     OBJ       -819
RHS
    rhs       c1        10698
    rhs       c2        12078
    rhs       c3        10770
RANGES
BOUNDS
 BV bounds    x[1]
 BV bounds    x[2]
 BV bounds    x[3]
 BV bounds    x[4]
 BV bounds    x[5]
 BV bounds    x[6]
 BV bounds    x[7]
 BV bounds    x[8]
 BV bounds    x[9]
 BV bounds    x[10]
 BV bounds    x[11]
 BV bounds    x[12]
 BV bounds    x[13]
 BV bounds    x[14]
 BV bounds    x[15]
 BV bounds    x[16]
 BV bounds    x[17]
 BV bounds    x[18]
 BV bounds    x[19]
 BV bounds    x[20]
 BV bounds    x[21]
 BV bounds    x[22]
 BV bounds    x[23]
 BV bounds    x[24]
 BV bounds    x[25]
 BV bounds    x[26]
 BV bounds    x[27]
 BV bounds    x[28]
 BV bounds    x[29]
 BV bounds    x[30]
 BV bounds    x[31]
 BV bounds    x[32]
 BV bounds    x[33]
 BV bounds    x[34]
 BV bounds    x[35]
 BV bounds    x[36]
 BV bounds    x[37]
 BV bounds    x[38]
 BV bounds    x[39]
 BV bounds    x[40]
 BV bounds    x[41]
 BV bounds    x[42]
 BV bounds    x[43]
 BV bounds    x[44]
 BV bounds    x[45]
ENDATA
